(benchmark random_random85_smt
:extrafuns ((x0 BitVec[24]))
:extrafuns ((x1 BitVec[24]))
:extrafuns ((x2 BitVec[24]))
:extrafuns ((x3 BitVec[24]))
:extrafuns ((x4 BitVec[24]))
:extrafuns ((x5 BitVec[24]))
:extrafuns ((x6 BitVec[24]))
:extrafuns ((x7 BitVec[24]))
:extrafuns ((x8 BitVec[24]))
:extrafuns ((x9 BitVec[24]))
:extrafuns ((x10 BitVec[24]))
:extrafuns ((x11 BitVec[24]))
:extrafuns ((x12 BitVec[24]))
:extrafuns ((x13 BitVec[24]))
:extrafuns ((x14 BitVec[24]))
:extrafuns ((x15 BitVec[24]))
:extrafuns ((x16 BitVec[24]))
:extrafuns ((x17 BitVec[24]))
:extrafuns ((x18 BitVec[24]))
:extrafuns ((x19 BitVec[24]))


:formula (and (not (= (bvadd (bvmul bv4073655[24] x2) 
                        (bvadd (bvmul bv809496[24] x3) 
                        (bvadd (bvmul bv11923323[24] x6) 
                        (bvadd (bvmul bv5504774[24] x8) 
                        (bvadd (bvmul bv15865726[24] x9) 
                        (bvadd (bvmul bv13073734[24] x10) 
                        (bvadd (bvmul bv14800254[24] x12) 
                        (bvadd (bvmul bv13128402[24] x13) 
                        (bvadd (bvmul bv6906994[24] x14) 
                        (bvadd (bvmul bv13322857[24] x16) 
                        (bvadd (bvmul bv16036598[24] x18) (bvmul bv1819537[24] x19))))))))))))
	              bv16444120[24]))
         (and (not (= (bvadd (bvmul bv5893192[24] x0) 
                        (bvadd (bvmul bv10676387[24] x1) 
                        (bvadd (bvmul bv13828482[24] x2) 
                        (bvadd (bvmul bv16416784[24] x7) 
                        (bvadd (bvmul bv12713304[24] x9) 
                        (bvadd (bvmul bv14511694[24] x12) 
                        (bvadd (bvmul bv1187116[24] x17) (bvmul bv14659345[24] x18))))))))
	              bv5320909[24]))
         (and (not (= (bvadd (bvmul bv113405[24] x0) 
                        (bvadd (bvmul bv5594860[24] x1) 
                        (bvadd (bvmul bv9086973[24] x2) 
                        (bvadd (bvmul bv9810428[24] x3) 
                        (bvadd (bvmul bv5577220[24] x4) 
                        (bvadd (bvmul bv2191638[24] x5) 
                        (bvadd (bvmul bv3649778[24] x7) 
                        (bvadd (bvmul bv10682356[24] x8) 
                        (bvadd (bvmul bv13165692[24] x9) 
                        (bvadd (bvmul bv7521992[24] x12) 
                        (bvadd (bvmul bv80019[24] x13) 
                        (bvadd (bvmul bv10870692[24] x15) 
                        (bvadd (bvmul bv16191602[24] x17) (bvmul bv14602187[24] x19))))))))))))))
	              bv8631198[24]))
         (and (not (= (bvadd (bvmul bv6911946[24] x0) 
                        (bvadd (bvmul bv672971[24] x4) 
                        (bvadd (bvmul bv14090418[24] x5) 
                        (bvadd (bvmul bv12575372[24] x6) 
                        (bvadd (bvmul bv5003513[24] x8) 
                        (bvadd (bvmul bv11943348[24] x10) 
                        (bvadd (bvmul bv4710642[24] x11) 
                        (bvadd (bvmul bv10163181[24] x13) 
                        (bvadd (bvmul bv13497851[24] x15) 
                        (bvadd (bvmul bv9972139[24] x16) (bvmul bv12504692[24] x17)))))))))))
	              bv5037752[24]))
         (and (bvule      (bvadd (bvmul bv16643751[24] x0) 
                        (bvadd (bvmul bv8054212[24] x3) 
                        (bvadd (bvmul bv11012537[24] x4) 
                        (bvadd (bvmul bv961109[24] x6) 
                        (bvadd (bvmul bv14393065[24] x7) 
                        (bvadd (bvmul bv9559199[24] x9) 
                        (bvadd (bvmul bv3369473[24] x12) 
                        (bvadd (bvmul bv2268078[24] x13) 
                        (bvadd (bvmul bv8026511[24] x14) 
                        (bvadd (bvmul bv14919262[24] x18) (bvmul bv2209670[24] x19)))))))))))
	              bv12851106[24])
         (and (bvule      (bvadd (bvmul bv9590912[24] x0) 
                        (bvadd (bvmul bv867910[24] x2) 
                        (bvadd (bvmul bv7195639[24] x3) 
                        (bvadd (bvmul bv3239597[24] x9) 
                        (bvadd (bvmul bv15914538[24] x10) 
                        (bvadd (bvmul bv2506796[24] x12) 
                        (bvadd (bvmul bv15915978[24] x13) 
                        (bvadd (bvmul bv6937463[24] x14) 
                        (bvadd (bvmul bv14532336[24] x17) (bvmul bv16742006[24] x19))))))))))
	              bv994896[24])
         (and (bvule      (bvadd (bvmul bv9555703[24] x0) 
                        (bvadd (bvmul bv10423613[24] x2) 
                        (bvadd (bvmul bv16755120[24] x3) 
                        (bvadd (bvmul bv3589563[24] x8) 
                        (bvadd (bvmul bv8132415[24] x9) 
                        (bvadd (bvmul bv5003101[24] x11) 
                        (bvadd (bvmul bv4141864[24] x13) 
                        (bvadd (bvmul bv2654914[24] x17) (bvmul bv16770311[24] x19)))))))))
	              bv2444981[24])
         (and (bvule      (bvadd (bvmul bv12000685[24] x1) 
                        (bvadd (bvmul bv14875720[24] x9) 
                        (bvadd (bvmul bv10209424[24] x12) 
                        (bvadd (bvmul bv9037221[24] x15) (bvmul bv10703857[24] x18)))))
	              bv8819947[24])
         (and (bvule      (bvadd (bvmul bv9782432[24] x0) 
                        (bvadd (bvmul bv13351868[24] x1) 
                        (bvadd (bvmul bv9441323[24] x2) 
                        (bvadd (bvmul bv7450884[24] x3) 
                        (bvadd (bvmul bv16095870[24] x4) 
                        (bvadd (bvmul bv13815230[24] x5) 
                        (bvadd (bvmul bv610298[24] x13) 
                        (bvadd (bvmul bv75584[24] x16) (bvmul bv1994147[24] x19)))))))))
	              bv8925026[24])
         (and (bvule      (bvadd (bvmul bv1930244[24] x1) 
                        (bvadd (bvmul bv11927572[24] x2) 
                        (bvadd (bvmul bv7343324[24] x3) 
                        (bvadd (bvmul bv9861444[24] x9) 
                        (bvadd (bvmul bv5607348[24] x12) 
                        (bvadd (bvmul bv31660[24] x13) 
                        (bvadd (bvmul bv12477641[24] x14) 
                        (bvadd (bvmul bv7922822[24] x17) (bvmul bv13146034[24] x18)))))))))
	              bv11599695[24])
         (and (bvule      (bvadd (bvmul bv10175399[24] x1) 
                        (bvadd (bvmul bv5325756[24] x3) 
                        (bvadd (bvmul bv10420243[24] x5) 
                        (bvadd (bvmul bv2213201[24] x6) 
                        (bvadd (bvmul bv10587939[24] x7) 
                        (bvadd (bvmul bv6490627[24] x10) 
                        (bvadd (bvmul bv11816132[24] x16) 
                        (bvadd (bvmul bv2961739[24] x18) (bvmul bv5173252[24] x19)))))))))
	              bv8110644[24])
         (and (bvule      (bvadd (bvmul bv10467097[24] x0) 
                        (bvadd (bvmul bv7901762[24] x4) 
                        (bvadd (bvmul bv1544790[24] x6) 
                        (bvadd (bvmul bv13501545[24] x7) 
                        (bvadd (bvmul bv8765089[24] x8) 
                        (bvadd (bvmul bv7518575[24] x9) 
                        (bvadd (bvmul bv10654809[24] x12) 
                        (bvadd (bvmul bv13866559[24] x14) 
                        (bvadd (bvmul bv1839137[24] x16) 
                        (bvadd (bvmul bv13425362[24] x17) (bvmul bv1078739[24] x18)))))))))))
	              bv8595085[24])
         (and (bvule      (bvadd (bvmul bv7287155[24] x0) 
                        (bvadd (bvmul bv12459809[24] x1) 
                        (bvadd (bvmul bv3840429[24] x5) 
                        (bvadd (bvmul bv10147912[24] x6) 
                        (bvadd (bvmul bv10959966[24] x9) 
                        (bvadd (bvmul bv13689948[24] x10) 
                        (bvadd (bvmul bv3509820[24] x12) 
                        (bvadd (bvmul bv7855691[24] x16) (bvmul bv7272955[24] x18)))))))))
	              bv16156613[24])
         (and (bvule      (bvadd (bvmul bv15918153[24] x0) 
                        (bvadd (bvmul bv11600748[24] x2) 
                        (bvadd (bvmul bv12557554[24] x3) 
                        (bvadd (bvmul bv5448160[24] x4) 
                        (bvadd (bvmul bv12180097[24] x5) 
                        (bvadd (bvmul bv3062159[24] x6) 
                        (bvadd (bvmul bv1818621[24] x9) 
                        (bvadd (bvmul bv7915030[24] x12) 
                        (bvadd (bvmul bv15303120[24] x14) (bvmul bv15113817[24] x18))))))))))
	              bv15919202[24])
         (and (bvule      (bvadd (bvmul bv5332738[24] x0) 
                        (bvadd (bvmul bv3469685[24] x4) 
                        (bvadd (bvmul bv3281280[24] x5) 
                        (bvadd (bvmul bv9592613[24] x10) 
                        (bvadd (bvmul bv13997823[24] x12) 
                        (bvadd (bvmul bv7679630[24] x16) (bvmul bv5481027[24] x19)))))))
	              bv1577876[24])
         (and (bvule      (bvadd (bvmul bv11672826[24] x0) 
                        (bvadd (bvmul bv228349[24] x2) 
                        (bvadd (bvmul bv7642805[24] x8) 
                        (bvadd (bvmul bv4926529[24] x9) 
                        (bvadd (bvmul bv14909405[24] x10) 
                        (bvadd (bvmul bv16556166[24] x14) (bvmul bv8576134[24] x19)))))))
	              bv6299301[24])
         (and (bvule      (bvadd (bvmul bv14057161[24] x0) 
                        (bvadd (bvmul bv8597042[24] x3) 
                        (bvadd (bvmul bv15125448[24] x5) 
                        (bvadd (bvmul bv2709759[24] x7) 
                        (bvadd (bvmul bv6131271[24] x8) 
                        (bvadd (bvmul bv2552293[24] x9) 
                        (bvadd (bvmul bv3318294[24] x10) 
                        (bvadd (bvmul bv5876637[24] x12) 
                        (bvadd (bvmul bv12819140[24] x16) 
                        (bvadd (bvmul bv14508924[24] x17) (bvmul bv2369099[24] x18)))))))))))
	              bv2766510[24])
         (and (bvule      (bvadd (bvmul bv11908189[24] x0) 
                        (bvadd (bvmul bv8601819[24] x1) 
                        (bvadd (bvmul bv1005727[24] x3) 
                        (bvadd (bvmul bv4786008[24] x6) 
                        (bvadd (bvmul bv16702744[24] x7) 
                        (bvadd (bvmul bv14932829[24] x8) 
                        (bvadd (bvmul bv1679653[24] x9) 
                        (bvadd (bvmul bv5320454[24] x10) 
                        (bvadd (bvmul bv13211880[24] x13) 
                        (bvadd (bvmul bv9481889[24] x14) 
                        (bvadd (bvmul bv1125861[24] x16) 
                        (bvadd (bvmul bv12841927[24] x17) (bvmul bv7972901[24] x19)))))))))))))
	              bv14861301[24])
         (and (bvule      (bvadd (bvmul bv11762741[24] x1) 
                        (bvadd (bvmul bv13570560[24] x3) 
                        (bvadd (bvmul bv1785961[24] x4) 
                        (bvadd (bvmul bv12350324[24] x5) 
                        (bvadd (bvmul bv9383264[24] x11) 
                        (bvadd (bvmul bv5817929[24] x13) (bvmul bv10336799[24] x16)))))))
	              bv6262550[24])
         (and (bvule      (bvadd (bvmul bv14374413[24] x0) 
                        (bvadd (bvmul bv9298116[24] x2) 
                        (bvadd (bvmul bv366195[24] x3) 
                        (bvadd (bvmul bv12790989[24] x5) 
                        (bvadd (bvmul bv14920537[24] x10) 
                        (bvadd (bvmul bv2021262[24] x11) 
                        (bvadd (bvmul bv2664371[24] x12) 
                        (bvadd (bvmul bv1782643[24] x13) 
                        (bvadd (bvmul bv10771037[24] x14) (bvmul bv10732134[24] x19))))))))))
	              bv11659689[24])
         (and (bvule      (bvadd (bvmul bv6125514[24] x2) 
                        (bvadd (bvmul bv6491709[24] x4) 
                        (bvadd (bvmul bv2505484[24] x6) 
                        (bvadd (bvmul bv16763387[24] x7) 
                        (bvadd (bvmul bv6686467[24] x8) 
                        (bvadd (bvmul bv9012906[24] x9) 
                        (bvadd (bvmul bv14636318[24] x10) 
                        (bvadd (bvmul bv1098079[24] x15) 
                        (bvadd (bvmul bv5428702[24] x17) 
                        (bvadd (bvmul bv8812256[24] x18) (bvmul bv7345126[24] x19)))))))))))
	              bv16424897[24])
         (and (bvule      (bvadd (bvmul bv5135513[24] x3) 
                        (bvadd (bvmul bv15711493[24] x4) 
                        (bvadd (bvmul bv14770390[24] x5) 
                        (bvadd (bvmul bv16585683[24] x6) 
                        (bvadd (bvmul bv4075863[24] x7) 
                        (bvadd (bvmul bv1098449[24] x8) 
                        (bvadd (bvmul bv3354356[24] x10) 
                        (bvadd (bvmul bv16654526[24] x16) (bvmul bv8689567[24] x18)))))))))
	              bv711767[24])
         (and (bvule      (bvadd (bvmul bv7286005[24] x1) 
                        (bvadd (bvmul bv6019004[24] x2) 
                        (bvadd (bvmul bv9598138[24] x3) 
                        (bvadd (bvmul bv7591313[24] x5) 
                        (bvadd (bvmul bv16454072[24] x7) 
                        (bvadd (bvmul bv1204007[24] x11) 
                        (bvadd (bvmul bv1372568[24] x15) 
                        (bvadd (bvmul bv1249880[24] x17) 
                        (bvadd (bvmul bv2570418[24] x18) (bvmul bv400737[24] x19))))))))))
	              bv3282186[24])
         (and (bvule      (bvadd (bvmul bv10568192[24] x1) 
                        (bvadd (bvmul bv3875556[24] x2) 
                        (bvadd (bvmul bv8828839[24] x4) 
                        (bvadd (bvmul bv11171517[24] x6) 
                        (bvadd (bvmul bv15699025[24] x7) 
                        (bvadd (bvmul bv11274824[24] x10) 
                        (bvadd (bvmul bv7670446[24] x13) 
                        (bvadd (bvmul bv13007542[24] x14) 
                        (bvadd (bvmul bv7775915[24] x15) 
                        (bvadd (bvmul bv5072535[24] x16) 
                        (bvadd (bvmul bv7419655[24] x17) (bvmul bv8919139[24] x19))))))))))))
	              bv3329825[24])
         (and (bvule      (bvadd (bvmul bv16182710[24] x3) 
                        (bvadd (bvmul bv15311092[24] x4) 
                        (bvadd (bvmul bv10428524[24] x5) 
                        (bvadd (bvmul bv14349474[24] x6) 
                        (bvadd (bvmul bv140806[24] x7) 
                        (bvadd (bvmul bv5738977[24] x8) 
                        (bvadd (bvmul bv16445512[24] x12) 
                        (bvadd (bvmul bv8082679[24] x13) 
                        (bvadd (bvmul bv13155215[24] x15) (bvmul bv10646067[24] x19))))))))))
	              bv5181098[24])
         (and (bvule      (bvadd (bvmul bv2138913[24] x2) 
                        (bvadd (bvmul bv672790[24] x4) 
                        (bvadd (bvmul bv5294796[24] x5) 
                        (bvadd (bvmul bv14026128[24] x6) 
                        (bvadd (bvmul bv13078856[24] x7) 
                        (bvadd (bvmul bv5497928[24] x8) 
                        (bvadd (bvmul bv6094665[24] x10) 
                        (bvadd (bvmul bv12059962[24] x11) 
                        (bvadd (bvmul bv3650703[24] x15) 
                        (bvadd (bvmul bv5501976[24] x17) (bvmul bv10683074[24] x19)))))))))))
	              bv6889061[24])
         (and (bvule      (bvadd (bvmul bv6292340[24] x0) 
                        (bvadd (bvmul bv12248910[24] x1) 
                        (bvadd (bvmul bv11925564[24] x3) 
                        (bvadd (bvmul bv6212359[24] x6) 
                        (bvadd (bvmul bv4462458[24] x9) 
                        (bvadd (bvmul bv1027737[24] x10) 
                        (bvadd (bvmul bv3949467[24] x12) 
                        (bvadd (bvmul bv14094139[24] x13) 
                        (bvadd (bvmul bv1057215[24] x15) (bvmul bv13983724[24] x19))))))))))
	              bv9551203[24])
         (and (bvule      (bvadd (bvmul bv4657462[24] x3) 
                        (bvadd (bvmul bv11579150[24] x4) 
                        (bvadd (bvmul bv587113[24] x5) 
                        (bvadd (bvmul bv7212812[24] x10) 
                        (bvadd (bvmul bv10865294[24] x12) 
                        (bvadd (bvmul bv1634763[24] x16) (bvmul bv1769164[24] x18)))))))
	              bv2602645[24])
         (and (bvule      (bvadd (bvmul bv3319097[24] x0) 
                        (bvadd (bvmul bv15687453[24] x1) 
                        (bvadd (bvmul bv15341040[24] x3) 
                        (bvadd (bvmul bv8681326[24] x4) 
                        (bvadd (bvmul bv5809065[24] x5) 
                        (bvadd (bvmul bv14119388[24] x6) 
                        (bvadd (bvmul bv5011354[24] x8) 
                        (bvadd (bvmul bv15118208[24] x11) 
                        (bvadd (bvmul bv13554117[24] x12) 
                        (bvadd (bvmul bv1555736[24] x13) 
                        (bvadd (bvmul bv432050[24] x14) 
                        (bvadd (bvmul bv2201214[24] x16) 
                        (bvadd (bvmul bv14980554[24] x17) 
                        (bvadd (bvmul bv13799359[24] x18) (bvmul bv12617016[24] x19)))))))))))))))
	              bv3840091[24])
         (and (bvule      (bvadd (bvmul bv15315500[24] x1) 
                        (bvadd (bvmul bv4546602[24] x2) 
                        (bvadd (bvmul bv1888776[24] x4) 
                        (bvadd (bvmul bv3949918[24] x5) 
                        (bvadd (bvmul bv6404309[24] x7) 
                        (bvadd (bvmul bv2946780[24] x9) 
                        (bvadd (bvmul bv9674880[24] x10) 
                        (bvadd (bvmul bv10106931[24] x12) 
                        (bvadd (bvmul bv6925670[24] x13) 
                        (bvadd (bvmul bv2573238[24] x14) 
                        (bvadd (bvmul bv16372597[24] x16) (bvmul bv5077510[24] x17))))))))))))
	              bv16258351[24])
         (and (bvule      (bvadd (bvmul bv5916515[24] x4) 
                        (bvadd (bvmul bv12782927[24] x7) 
                        (bvadd (bvmul bv6883306[24] x9) 
                        (bvadd (bvmul bv13814888[24] x10) 
                        (bvadd (bvmul bv15419320[24] x11) 
                        (bvadd (bvmul bv7512296[24] x13) 
                        (bvadd (bvmul bv5418833[24] x14) 
                        (bvadd (bvmul bv3640116[24] x15) 
                        (bvadd (bvmul bv9680917[24] x16) (bvmul bv8593872[24] x19))))))))))
	              bv2437974[24])
         (and (bvule      (bvadd (bvmul bv14278544[24] x0) 
                        (bvadd (bvmul bv12382229[24] x3) 
                        (bvadd (bvmul bv8421661[24] x5) 
                        (bvadd (bvmul bv3609437[24] x10) 
                        (bvadd (bvmul bv11972087[24] x12) 
                        (bvadd (bvmul bv6079888[24] x15) 
                        (bvadd (bvmul bv14123310[24] x16) (bvmul bv6916054[24] x19))))))))
	              bv4275265[24])
         (and (bvule      (bvadd (bvmul bv2588202[24] x1) 
                        (bvadd (bvmul bv7222250[24] x3) 
                        (bvadd (bvmul bv12102626[24] x5) 
                        (bvadd (bvmul bv3069204[24] x6) 
                        (bvadd (bvmul bv2243221[24] x7) 
                        (bvadd (bvmul bv3980896[24] x8) 
                        (bvadd (bvmul bv11531263[24] x10) 
                        (bvadd (bvmul bv8445278[24] x11) 
                        (bvadd (bvmul bv3417079[24] x12) 
                        (bvadd (bvmul bv5454208[24] x16) 
                        (bvadd (bvmul bv15969763[24] x17) (bvmul bv13883605[24] x18))))))))))))
	              bv4947075[24])
         (and (bvule      (bvadd (bvmul bv13272014[24] x0) 
                        (bvadd (bvmul bv15414361[24] x3) 
                        (bvadd (bvmul bv1706351[24] x5) 
                        (bvadd (bvmul bv14013119[24] x6) 
                        (bvadd (bvmul bv2434651[24] x7) 
                        (bvadd (bvmul bv7820510[24] x8) 
                        (bvadd (bvmul bv13519018[24] x9) 
                        (bvadd (bvmul bv9381017[24] x10) 
                        (bvadd (bvmul bv1831133[24] x13) 
                        (bvadd (bvmul bv11439473[24] x15) (bvmul bv8545864[24] x17)))))))))))
	              bv8240457[24])
         (and (bvule      (bvadd (bvmul bv1708470[24] x2) 
                        (bvadd (bvmul bv4426227[24] x5) 
                        (bvadd (bvmul bv10714271[24] x6) 
                        (bvadd (bvmul bv1510748[24] x7) 
                        (bvadd (bvmul bv6816842[24] x8) 
                        (bvadd (bvmul bv5727650[24] x9) 
                        (bvadd (bvmul bv1732263[24] x16) 
                        (bvadd (bvmul bv13655528[24] x18) (bvmul bv446298[24] x19)))))))))
	              bv13748654[24])
         (and (bvule      (bvadd (bvmul bv7196605[24] x10) 
                        (bvadd (bvmul bv677753[24] x13) 
                        (bvadd (bvmul bv3541650[24] x14) 
                        (bvadd (bvmul bv921943[24] x15) 
                        (bvadd (bvmul bv10937480[24] x16) 
                        (bvadd (bvmul bv3792115[24] x17) 
                        (bvadd (bvmul bv11019536[24] x18) (bvmul bv9548058[24] x19))))))))
	              bv5168112[24])
         (and (bvule      (bvadd (bvmul bv6519497[24] x0) 
                        (bvadd (bvmul bv9717724[24] x6) 
                        (bvadd (bvmul bv2770770[24] x7) 
                        (bvadd (bvmul bv8347924[24] x8) 
                        (bvadd (bvmul bv12163585[24] x9) 
                        (bvadd (bvmul bv7203609[24] x10) 
                        (bvadd (bvmul bv9468309[24] x11) 
                        (bvadd (bvmul bv4822343[24] x12) 
                        (bvadd (bvmul bv5454943[24] x13) 
                        (bvadd (bvmul bv2252649[24] x14) 
                        (bvadd (bvmul bv11652353[24] x15) (bvmul bv5674124[24] x16))))))))))))
	              bv10942695[24])
         (and (bvule      (bvadd (bvmul bv4173298[24] x0) 
                        (bvadd (bvmul bv13086859[24] x3) 
                        (bvadd (bvmul bv6731608[24] x4) 
                        (bvadd (bvmul bv3895068[24] x5) 
                        (bvadd (bvmul bv9047792[24] x6) 
                        (bvadd (bvmul bv12735217[24] x7) 
                        (bvadd (bvmul bv12122777[24] x8) 
                        (bvadd (bvmul bv167905[24] x10) 
                        (bvadd (bvmul bv15674390[24] x11) 
                        (bvadd (bvmul bv1291999[24] x12) 
                        (bvadd (bvmul bv14564185[24] x14) 
                        (bvadd (bvmul bv15226065[24] x15) 
                        (bvadd (bvmul bv16365847[24] x16) 
                        (bvadd (bvmul bv8670284[24] x17) (bvmul bv9439563[24] x19)))))))))))))))
	              bv16021956[24])
         (and (bvule      (bvadd (bvmul bv6325859[24] x6) 
                        (bvadd (bvmul bv1671422[24] x8) 
                        (bvadd (bvmul bv1839327[24] x10) 
                        (bvadd (bvmul bv11792709[24] x15) 
                        (bvadd (bvmul bv10241560[24] x17) (bvmul bv2855890[24] x19))))))
	              bv11901644[24])
              (bvule      (bvadd (bvmul bv13986582[24] x0) 
                        (bvadd (bvmul bv4649705[24] x2) 
                        (bvadd (bvmul bv14757765[24] x5) 
                        (bvadd (bvmul bv9961788[24] x6) 
                        (bvadd (bvmul bv8227306[24] x8) 
                        (bvadd (bvmul bv16712270[24] x10) 
                        (bvadd (bvmul bv8459738[24] x14) 
                        (bvadd (bvmul bv1856658[24] x17) 
                        (bvadd (bvmul bv15472404[24] x18) (bvmul bv142732[24] x19))))))))))
	              bv10596834[24])
	 )))))))))))))))))))))))))))))))))))))))

)
